20
1 0 4
2 0 2
2 1 1
3 0 4
3 1 10
3 2 10
4 0 2
4 1 3
4 2 9
4 3 1
5 0 3
5 1 11
5 2 1
5 3 8
5 4 4
6 0 5
6 1 10
6 2 4
6 3 2
6 4 2
6 5 3
7 0 2
7 1 1
7 2 9
7 3 8
7 4 6
7 5 4
7 6 8
8 0 2
8 1 2
8 2 7
8 3 11
8 4 3
8 5 1
8 6 10
8 7 11
9 0 5
9 1 2
9 2 10
9 3 1
9 4 3
9 5 11
9 6 7
9 7 1
9 8 1
10 0 2
10 1 9
10 2 6
10 3 10
10 4 10
10 5 7
10 6 2
10 7 6
10 8 10
10 9 8
11 0 6
11 1 11
11 2 9
11 3 9
11 4 4
11 5 8
11 6 7
11 7 2
11 8 11
11 9 9
11 10 1
12 0 1
12 1 1
12 2 11
12 3 11
12 4 11
12 5 6
12 6 5
12 7 8
12 8 7
12 9 3
12 10 5
12 11 1
13 0 4
13 1 4
13 2 8
13 3 9
13 4 3
13 5 4
13 6 6
13 7 7
13 8 4
13 9 2
13 10 7
13 11 10
13 12 3
14 0 6
14 1 4
14 2 1
14 3 11
14 4 6
14 5 3
14 6 6
14 7 2
14 8 9
14 9 4
14 10 10
14 11 11
14 12 11
14 13 6
15 0 6
15 1 4
15 2 6
15 3 6
15 4 2
15 5 3
15 6 5
15 7 6
15 8 8
15 9 2
15 10 8
15 11 11
15 12 4
15 13 6
15 14 2
16 0 9
16 1 4
16 2 4
16 3 3
16 4 5
16 5 8
16 6 3
16 7 11
16 8 7
16 9 8
16 10 2
16 11 3
16 12 2
16 13 3
16 14 6
16 15 11
17 0 6
17 1 1
17 2 11
17 3 6
17 4 9
17 5 10
17 6 11
17 7 10
17 8 10
17 9 9
17 10 4
17 11 8
17 12 6
17 13 4
17 14 8
17 15 2
17 16 2
18 0 6
18 1 8
18 2 5
18 3 2
18 4 3
18 5 2
18 6 4
18 7 8
18 8 10
18 9 8
18 10 2
18 11 7
18 12 2
18 13 6
18 14 3
18 15 4
18 16 1
18 17 4
19 0 10
19 1 4
19 2 11
19 3 9
19 4 9
19 5 4
19 6 11
19 7 10
19 8 11
19 9 2
19 10 5
19 11 4
19 12 3
19 13 8
19 14 8
19 15 9
19 16 1
19 17 7
19 18 5
